
Gurobi 10.0.1 (win64) logging started Sat Jun 10 18:09:36 2023

Set parameter LogFile to value "results/log/Fattahi_setup_13_modified_deadline.log"
Gurobi Optimizer version 10.0.1 build v10.0.1rc0 (win64)

CPU model: AMD Ryzen 7 3700X 8-Core Processor, instruction set [SSE2|AVX|AVX2]
Thread count: 8 physical cores, 16 logical processors, using up to 16 threads

Optimize a model with 501 rows, 469 columns and 2006 nonzeros
Model fingerprint: 0x0b5a0ed4
Variable types: 0 continuous, 469 integer (420 binary)
Coefficient statistics:
  Matrix range     [1e+00, 1e+09]
  Objective range  [1e+00, 1e+00]
  Bounds range     [1e+00, 1e+00]
  RHS range        [1e+00, 3e+09]
Warning: Model contains large matrix coefficients
Warning: Model contains large rhs
         Consider reformulating model or setting NumericFocus parameter
         to avoid numerical issues.
Presolve removed 95 rows and 283 columns
Presolve time: 0.00s
Presolved: 406 rows, 186 columns, 1829 nonzeros
Variable types: 0 continuous, 186 integer (137 binary)

Root relaxation: objective 1.582000e+03, 76 iterations, 0.00 seconds (0.00 work units)

    Nodes    |    Current Node    |     Objective Bounds      |     Work
 Expl Unexpl |  Obj  Depth IntInf | Incumbent    BestBd   Gap | It/Node Time

     0     0 1582.00005    0   35          - 1582.00005      -     -    0s
     0     0 1582.00006    0   42          - 1582.00006      -     -    0s
H    0     0                    4867.0000000 1596.50500  67.2%     -    0s
     0     0 1596.50500    0   47 4867.00000 1596.50500  67.2%     -    0s
     0     0 1596.50500    0   47 4867.00000 1596.50500  67.2%     -    0s
H    0     0                    3490.0000000 1617.02363  53.7%     -    0s
H    0     0                    3259.0000000 1617.02363  50.4%     -    0s
     0     0 1625.99098    0   43 3259.00000 1625.99098  50.1%     -    0s
H    0     0                    3086.0000000 1625.99098  47.3%     -    0s
H    0     0                    2821.0000000 1625.99098  42.4%     -    0s
     0     0 1625.99098    0   43 2821.00000 1625.99098  42.4%     -    0s
     0     0 1625.99098    0   43 2821.00000 1625.99098  42.4%     -    0s
H    0     0                    2601.0000000 1625.99098  37.5%     -    0s
H    0     0                    2562.0000000 1625.99098  36.5%     -    0s
H    0     0                    2477.0000000 1635.04750  34.0%     -    0s
     0     0 1635.04750    0   35 2477.00000 1635.04750  34.0%     -    0s
H    0     0                    2444.0000000 1635.05024  33.1%     -    0s
H    0     0                    2430.0000000 1635.05024  32.7%     -    0s
     0     0 1635.05024    0   35 2430.00000 1635.05024  32.7%     -    0s
     0     0 1635.68552    0   33 2430.00000 1635.68552  32.7%     -    0s
     0     0 1635.70339    0   34 2430.00000 1635.70339  32.7%     -    0s
     0     0 1635.70339    0   34 2430.00000 1635.70339  32.7%     -    0s
     0     0 1635.70339    0   34 2430.00000 1635.70339  32.7%     -    0s
     0     0 1636.50001    0   33 2430.00000 1636.50001  32.7%     -    0s
     0     0 1636.50001    0   34 2430.00000 1636.50001  32.7%     -    0s
     0     0 1636.50001    0   34 2430.00000 1636.50001  32.7%     -    0s
     0     0 1637.00000    0   34 2430.00000 1637.00000  32.6%     -    0s
     0     0 1642.00000    0   34 2430.00000 1642.00000  32.4%     -    0s
     0     0 1642.00000    0   38 2430.00000 1642.00000  32.4%     -    0s
     0     0 1643.00000    0   37 2430.00000 1643.00000  32.4%     -    0s
H    0     0                    2321.0000000 1645.00000  29.1%     -    0s
     0     0 1647.00000    0   28 2321.00000 1647.00000  29.0%     -    0s
     0     0 1647.00000    0   33 2321.00000 1647.00000  29.0%     -    0s
     0     0 1648.00000    0   23 2321.00000 1648.00000  29.0%     -    0s
     0     0 1651.00000    0   29 2321.00000 1651.00000  28.9%     -    0s
     0     0 1652.00003    0   13 2321.00000 1652.00003  28.8%     -    0s
     0     0 1652.00003    0   33 2321.00000 1652.00003  28.8%     -    0s
     0     0 1655.00000    0   24 2321.00000 1655.00000  28.7%     -    0s
     0     0 1656.00000    0   28 2321.00000 1656.00000  28.7%     -    0s
H    0     0                    2284.0000000 1658.00000  27.4%     -    0s
     0     0 1658.00000    0   26 2284.00000 1658.00000  27.4%     -    0s
     0     0 1659.00000    0   25 2284.00000 1659.00000  27.4%     -    0s
H    0     0                    2262.0000000 1659.00000  26.7%     -    0s
     0     2 1659.00000    0   25 2262.00000 1659.00000  26.7%     -    0s
H  132    80                    2261.0000000 1659.00000  26.6%   7.4    0s
* 1368   537              31    2253.0000000 1706.00000  24.3%   4.2    0s
H 2458  1004                    2252.0000000 1727.00000  23.3%   4.0    0s
* 2532   897              31    2161.0000000 1742.72753  19.4%   4.0    0s
H 2582   888                    2155.0000000 1742.72753  19.1%   4.0    0s
H 2787   888                    2154.0000000 1742.72753  19.1%   4.0    0s
* 2887   953              31    2124.0000000 1747.00000  17.7%   4.0    0s
H 9748  2370                    2102.0000000 1781.00001  15.3%   2.8    0s
H 9842  2356                    2087.0000000 1781.00001  14.7%   2.8    0s
H10893  2797                    2078.0000000 1781.00001  14.3%   3.2    0s
 87954 16431 infeasible   50      2078.00000 1884.73682  9.30%   5.9    5s

Cutting planes:
  Learned: 1
  Gomory: 17
  Implied bound: 2
  MIR: 8
  Flow cover: 9
  Zero half: 1

Explored 182169 nodes (1073412 simplex iterations) in 7.91 seconds (4.83 work units)
Thread count was 16 (of 16 available processors)

Solution count 10: 2078 2087 2102 ... 2261

Optimal solution found (tolerance 1.00e-04)
Best objective 2.078000000000e+03, best bound 2.078000000000e+03, gap 0.0000%
Warning: variable name "y[job:0, stage:0, machine:1]" has a space
Warning: constraint name "precedence between 1,0 to 0,0 if x_[j,l,h,z,i]=1" has a space
Warning: to let Gurobi read it back, use rlp format
Warning: variable name "y[job:0, stage:0, machine:1]" has a space
Warning: constraint name "precedence between 1,0 to 0,0 if x_[j,l,h,z,i]=1" has a space
Warning: default variable names used to write mps file
Warning: default constraint names used to write mps file
Warning: variable name "y[job:0, stage:0, machine:1]" has a space
Warning: default variable names used to write solution file
